P4
  1.0
    3.268207 0.000000 0.000000
    1.634103 2.830350 0.000000
    0.000000 0.000000 21.000000
  P
  4
Direct
  0.666666 0.666667 0.317470 P
  0.000000 0.000000 0.376465 P
  0.666666 0.666667 0.539674 P
  0.000000 0.000000 0.598669 P
  